Version identifier: 22.1.0.0 | 2022-03-09 | 1a383f8ce
CPXPARAM_Read_DataCheck                          1
CPXPARAM_TimeLimit                               10
Found incumbent of value 1513.000000 after 0.00 sec. (0.00 ticks)
Tried aggregator 1 time.
MIP Presolve added 3 rows and 3 columns.
Reduced MIP has 6 rows, 29 columns, and 74 nonzeros.
Reduced MIP has 20 binaries, 9 generals, 0 SOSs, and 0 indicators.
Presolve time = 0.00 sec. (0.04 ticks)
Probing time = 0.00 sec. (0.00 ticks)
Tried aggregator 1 time.
Detecting symmetries...
MIP Presolve eliminated 3 rows and 3 columns.
MIP Presolve added 3 rows and 3 columns.
Reduced MIP has 6 rows, 29 columns, and 74 nonzeros.
Reduced MIP has 20 binaries, 9 generals, 0 SOSs, and 0 indicators.
Presolve time = 0.02 sec. (0.05 ticks)
Probing time = 0.00 sec. (0.00 ticks)
MIP emphasis: balance optimality and feasibility.
MIP search method: dynamic search.
Parallel mode: deterministic, using up to 24 threads.
Root relaxation solution time = 0.00 sec. (0.03 ticks)

        Nodes                                         Cuts/
   Node  Left     Objective  IInf  Best Integer    Best Bound    ItCnt     Gap

*     0+    0                         1513.0000        0.0000           100.00%
      0     0        0.0000     3     1513.0000        0.0000        5  100.00%
*     0+    0                          104.0000        0.0000           100.00%
      0     0        0.0000     4      104.0000       Cuts: 8       15  100.00%
*     0+    0                           99.0000        0.0000           100.00%
      0     0        0.0000     4       99.0000       Cuts: 9       24  100.00%
*     0+    0                           43.0000        0.0000           100.00%
*     0+    0                            8.0000        0.0000           100.00%
Detecting symmetries...
      0     2        0.0000     4        8.0000        0.0000       24  100.00%
Elapsed time = 0.31 sec. (0.73 ticks, tree = 0.02 MB, solutions = 5)
*   175    39      integral     0        6.0000        0.0000      113  100.00%
*   903    37      integral     0        4.0000        0.0000      141  100.00%
*  2352    44      integral     0        3.0000        0.0000      920  100.00%

Flow cuts applied:  2
Gomory fractional cuts applied:  2

Root node processing (before b&c):
  Real time             =    0.30 sec. (0.73 ticks)
Parallel b&c, 24 threads:
  Real time             =    0.63 sec. (4.36 ticks)
  Sync time (average)   =    0.59 sec.
  Wait time (average)   =    0.00 sec.
                          ------------
Total (root+branch&cut) =    0.92 sec. (5.09 ticks)
